 &control
    calculation = 'scf'
    prefix='aluminum',
    outdir='/egr/research-cmdgroup/santiama/qe6/tempdir'
 /
 &system
   ibrav=  2, 
   celldm(1) =7.538, 
   nat=  1, 
   ntyp= 1,
   occupations='smearing',
   smearing='mp',
   degauss=0.02,
   ecutwfc =30,
   ecutrho =200,
 /
 &electrons
    conv_thr =  1.0d-10
 /
ATOMIC_SPECIES
Al  0.0   Al.pz-n-kjpaw_psl.0.1.UPF
ATOMIC_POSITIONS alat
Al  0.0000000   0.00000000   0.0
K_POINTS AUTOMATIC
16 16 16 1 1 1
